# 26315
param k := 6;
param n := 60;
param s := 1;
set E :=  (0,39) (1,9) (1,18) (1,26) (2,59) (3,24) (3,51) (4,23) (4,57) (5,26) (5,37) (6,59) (7,16) (7,25) (7,29) (8,57) (10,28) (11,13) (11,54) (12,17) (12,31) (12,48) (13,20) (13,40) (14,23) (15,22) (15,58) (15,59) (17,20) (17,44) (17,56) (17,57) (18,43) (19,30) (19,42) (21,39) (25,45) (25,56) (26,35) (27,28) (27,29) (30,38) (30,52) (31,49) (31,55) (32,48) (33,49) (34,38) (35,39) (36,47) (37,52) (41,43) (44,50) (45,46) (45,51) (47,49) (48,52) (53,54) (56,58);